p cnf 14 25
14 11 -8 0
-14 9 -3 0
-14 -7 -6 0
13 5 -3 0
12 -11 -7 0
12 -11 6 0
-12 11 6 0
12 -10 7 0
-12 9 8 0
-12 7 -5 0
-12 7 -4 0
-12 4 2 0
12 3 2 0
11 10 -9 0
-11 10 -1 0
11 -7 -6 0
11 -7 -3 0
11 -4 -3 0
-10 -8 6 0
10 6 -2 0
9 6 -5 0
9 -5 2 0
-8 6 5 0
-8 -5 3 0
-7 5 2 0
